k = 16;
b = 8;
AtomicConstraints =  [|
1, 3|
	1, 4|
	2, 4|
	10, 16|
	11, 13|
	11, 15|
	11, 14|
	11, 16|
	13, 15|
	13, 16|
	12, 10|
	12, 13|
	12, 15|
	12, 14|
	12, 16|
	14, 15|
	14, 16|
	9, 10|
	9, 15|
	9, 14|
	9, 16|];
DisjunctiveConstraints =  [|1, 11, 1, 3|
	2, 12, 2, 4|
	12, 9, 12, 11|
	14, 10, 14, 13|];
SoftAtomicConstraints =  [|
1, 2|
3, 4|
2, 5|
5, 6|
6, 7|
7, 8|
12, 11|
9, 12|
14, 13|
10, 14|
16, 15|];
DirectSuccessors =  [3,
4,
11,
12];
